p cnf 97 337
1 2 -3 0
-1 -2 -3 0
1 -2 3 0
-1 2 3 0
5 4 0
5 -2 0
-4 2 -5 0
3 5 -6 0
-3 -5 -6 0
3 -5 6 0
-3 5 6 0
7 3 0
7 6 0
-3 -6 -7 0
9 -8 0
9 8 0
7 -9 -10 0
-7 9 -10 0
7 9 10 0
-7 -9 10 0
12 -11 0
12 -8 0
11 8 -12 0
-12 11 -13 0
12 -11 -13 0
-12 -11 13 0
12 11 13 0
14 13 0
14 -12 0
-13 12 -14 0
-14 -15 -16 0
14 15 -16 0
-14 15 16 0
14 -15 16 0
-17 -10 0
-17 -16 0
10 16 17 0
9 -8 -18 0
-9 8 -18 0
9 8 18 0
-9 -8 18 0
-1 18 -19 0
1 -18 -19 0
-1 -18 19 0
1 18 19 0
20 -18 0
20 -19 0
18 19 -20 0
21 8 0
21 -13 0
-8 13 -21 0
-22 -20 0
-22 21 0
20 -21 22 0
-24 -22 0
-24 -23 0
22 23 24 0
-20 -5 -25 0
20 5 -25 0
-20 5 25 0
20 -5 25 0
-27 -1 0
-27 26 0
1 -26 27 0
-28 -27 0
-28 4 0
27 -4 28 0
-29 20 0
-29 -28 0
-20 28 29 0
32 -30 0
32 31 0
30 -31 -32 0
-1 33 -34 0
1 -33 -34 0
-1 -33 34 0
1 33 34 0
-32 -34 -35 0
32 34 -35 0
-32 34 35 0
32 -34 35 0
-35 -4 -36 0
35 4 -36 0
-35 4 36 0
35 -4 36 0
36 -5 -37 0
-36 5 -37 0
36 5 37 0
-36 -5 37 0
-38 -37 0
-38 2 0
37 -2 38 0
39 -29 0
39 -38 0
29 38 -39 0
-40 25 0
-40 39 0
-25 -39 40 0
41 -27 0
41 -11 0
27 11 -41 0
40 -41 -42 0
-40 41 -42 0
40 41 42 0
-40 -41 42 0
-43 24 0
-43 -42 0
-24 42 43 0
-44 -17 0
-44 43 0
17 -43 44 0
-45 -35 0
-45 -18 0
35 18 45 0
-46 -2 0
-46 -4 0
2 4 46 0
-47 26 0
-47 -46 0
-26 46 47 0
-48 45 0
-48 -47 0
-45 47 48 0
2 1 -50 0
-2 -1 -50 0
2 -1 50 0
-2 1 50 0
-51 49 0
-51 50 0
-49 -50 51 0
-52 -48 0
-52 -51 0
48 51 52 0
-9 34 -53 0
9 -34 -53 0
-9 -34 53 0
9 34 53 0
54 13 0
54 53 0
-13 -53 -54 0
-30 54 -55 0
30 -54 -55 0
-30 -54 55 0
30 54 55 0
2 55 -56 0
-2 -55 -56 0
2 -55 56 0
-2 55 56 0
-58 57 0
-58 19 0
-57 -19 58 0
59 -58 0
59 -12 0
58 12 -59 0
-60 3 0
-60 37 0
-3 -37 60 0
61 59 0
61 60 0
-59 -60 -61 0
-62 56 0
-62 61 0
-56 -61 62 0
4 58 -63 0
-4 -58 -63 0
4 -58 63 0
-4 58 63 0
-62 -63 -64 0
62 63 -64 0
-62 63 64 0
62 -63 64 0
-65 -32 0
-65 22 0
32 -22 65 0
64 65 -66 0
-64 -65 -66 0
64 -65 66 0
-64 65 66 0
-67 52 0
-67 66 0
-52 -66 67 0
68 44 0
68 -67 0
-44 67 -68 0
-69 -21 -70 0
69 21 -70 0
-69 21 70 0
69 -21 70 0
49 -20 -71 0
-49 20 -71 0
49 20 71 0
-49 -20 71 0
71 32 -72 0
-71 -32 -72 0
71 -32 72 0
-71 32 72 0
73 72 0
73 -14 0
-72 14 -73 0
-74 70 0
-74 -73 0
-70 73 74 0
75 -31 0
75 20 0
31 -20 -75 0
-26 33 -76 0
26 -33 -76 0
-26 -33 76 0
26 33 76 0
75 76 -77 0
-75 -76 -77 0
75 -76 77 0
-75 76 77 0
-78 74 0
-78 -77 0
-74 77 78 0
-79 68 0
-79 -78 0
-68 78 79 0
-80 58 0
-80 9 0
-58 -9 80 0
-81 -57 0
-81 -80 0
57 80 81 0
82 55 0
82 9 0
-55 -9 -82 0
81 -82 -83 0
-81 82 -83 0
81 82 83 0
-81 -82 83 0
-46 35 -84 0
46 -35 -84 0
-46 -35 84 0
46 35 84 0
85 84 0
85 -13 0
-84 13 -85 0
-84 85 -86 0
84 -85 -86 0
-84 -85 86 0
84 85 86 0
87 58 0
87 -30 0
-58 30 -87 0
-88 -86 0
-88 87 0
86 -87 88 0
-72 69 -89 0
72 -69 -89 0
-72 -69 89 0
72 69 89 0
-53 21 -90 0
53 -21 -90 0
-53 -21 90 0
53 21 90 0
-91 -85 0
-91 -90 0
85 90 91 0
-89 -91 -92 0
89 91 -92 0
-89 91 92 0
89 -91 92 0
-93 21 0
-93 18 0
-21 -18 93 0
-92 93 -94 0
92 -93 -94 0
-92 -93 94 0
92 93 94 0
-95 88 0
-95 94 0
-88 -94 95 0
-96 -83 0
-96 -95 0
83 95 96 0
97 79 0
97 -96 0
-79 96 -97 0
66 -14 -62 -22 0
-50 13 -63 19 -71 -77 0
46 82 -66 -84 47 0
-71 58 13 0
-60 92 0
-27 -13 -14 -41 0
6 65 -38 -14 0
31 -5 26 -70 -83 0
23 16 -91 9 0
70 -23 40 -57 0
-80 -3 -42 76 31 46 0
32 87 -40 7 -95 0
74 -16 85 0
-8 39 -65 70 0
87 7 8 64 -54 0
87 50 68 -64 73 -16 0
-3 -31 -7 91 -38 -56 0
15 85 -37 -94 -41 0
16 -82 46 53 -74 0
81 -83 -91 0
-50 -40 -47 0
-47 -89 65 -64 -21 0
81 -42 -21 16 -91 38 0
-70 -93 72 4 -26 0
-51 -31 82 -66 -76 5 0
21 -14 66 47 39 89 0
-36 16 15 0
57 -93 0
-63 56 -53 -6 0
66 -25 0
90 -73 -19 10 65 -42 0
-94 22 81 -87 0
76 57 0
72 83 -42 -15 0
-11 24 -54 47 96 0
-1 -73 0
44 -11 -30 -90 0
-83 27 33 -25 52 40 0
50 39 -35 -92 0
-9 -81 -7 0
-82 79 0
62 20 -57 83 0
-4 76 -13 -80 -9 0
-71 -80 30 0
21 68 48 -95 93 0
31 83 84 0
-97 89 -28 0
-11 66 48 0
-97 8 -61 22 -24 25 0
-26 -86 -49 -10 -21 0
-97 -9 26 -91 -12 0
3 -15 82 58 0
19 57 0
-22 -80 -60 -97 0
65 11 -18 -28 0
-14 -86 -65 -26 -20 -47 0
97 0
